T=23;
V=9;
A=8;
start=[7,3,1,6,4,9,2,8];
end=[1,2,3,4,5,6,7,8];
distances=[|0,1,2,1,2,3,2,3,4
|1,0,1,2,1,2,3,2,3
|2,1,0,3,2,1,4,3,2
|1,2,3,0,1,2,1,2,3
|2,1,2,1,0,1,2,1,2
|3,2,1,2,1,0,3,2,1
|2,3,4,1,2,3,0,1,2
|3,2,3,2,1,2,1,0,1
|4,3,2,3,2,1,2,1,0|];
